DIMACS2
160 558 298 268 371 311 553 309 254 241 530 324 305 8 88 468 589 83 277 422 512 183 127 146 15 365 304 171 409 296 131 58 494 353 476 253 5 535 213 629 244 606 604 299 283 410 418 267 286 159 533 53 18 224 636 117 101 14 180 42 458 407 557 38 278 448 500 306 354 85 529 491 230 588 630 392 173 319 574 607 329 250 331 414 35 480 344 55 36 517 318 593 576 80 341 172 140 208 73 425 187 111 246 160 538 279 396 472 451 60 552 6 189 368 21 13 431 265 179 575 216 366 271 264 555 602 551 314 19 465 583 323 128 343 177 599 233 380 443 315 76 37 437 227 106 411 358 374 328 24 166 336 590 71 340 56 91 522 222 269 237
p edge 640 1376
e 0 493 1.0
e 0 302 1.0
e 1 129 1.0
e 1 347 1.0
e 2 577 1.0
e 2 89 1.0
e 3 189 17.0
e 3 384 2.0
e 4 333 1.0
e 4 516 1.0
e 5 583 29.0
e 5 473 42.0
e 5 512 10.0
e 5 500 34.0
e 5 55 3.0
e 6 415 38.0
e 6 63 11.0
e 7 282 1.0
e 7 170 2.0
e 8 253 12.0
e 8 74 3.0
e 8 14 21.0
e 9 67 1.0
e 9 229 1.0
e 10 374 16.0
e 10 419 2.0
e 11 534 1.0
e 11 279 44.0
e 12 410 22.0
e 12 598 2.0
e 13 155 40.0
e 13 346 23.0
e 14 515 11.0
e 14 474 35.0
e 14 418 1.0
e 15 330 23.0
e 15 599 21.0
e 15 636 14.0
e 15 315 37.0
e 16 537 3.0
e 16 309 22.0
e 17 94 2.0
e 17 304 43.0
e 18 44 29.0
e 18 199 35.0
e 18 298 29.0
e 19 110 6.0
e 19 392 46.0
e 19 159 35.0
e 20 153 1.0
e 20 352 1.0
e 21 112 42.0
e 21 286 46.0
e 21 552 5.0
e 21 574 26.0
e 21 491 41.0
e 22 488 1.0
e 22 153 1.0
e 23 47 1.0
e 23 16 2.0
e 24 324 12.0
e 24 379 5.0
e 24 407 30.0
e 25 58 14.0
e 25 533 17.0
e 26 139 1.0
e 26 546 1.0
e 27 535 26.0
e 27 389 1.0
e 28 557 45.0
e 28 137 1.0
e 29 201 1.0
e 29 157 1.0
e 30 377 1.0
e 30 633 2.0
e 31 183 34.0
e 31 460 1.0
e 32 83 11.0
e 32 157 2.0
e 33 217 1.0
e 33 350 2.0
e 34 137 2.0
e 34 246 31.0
e 35 50 3.0
e 35 529 12.0
e 35 159 26.0
e 35 36 47.0
e 36 362 23.0
e 36 154 23.0
e 37 306 33.0
e 37 116 3.0
e 37 311 23.0
e 37 553 29.0
e 37 237 48.0
e 38 499 36.0
e 38 415 27.0
e 38 222 6.0
e 38 574 20.0
e 38 517 5.0
e 39 191 2.0
e 39 41 1.0
e 40 141 2.0
e 40 72 1.0
e 41 95 2.0
e 41 590 20.0
e 42 318 22.0
e 42 228 19.0
e 42 555 11.0
e 43 247 1.0
e 43 187 42.0
e 44 159 8.0
e 44 343 19.0
e 45 278 25.0
e 45 577 1.0
e 46 415 1.0
e 46 245 1.0
e 47 621 1.0
e 47 354 9.0
e 48 442 2.0
e 48 485 1.0
e 49 60 47.0
e 49 61 2.0
e 50 609 1.0
e 50 517 10.0
e 51 406 1.0
e 51 107 3.0
e 52 127 42.0
e 52 178 1.0
e 53 303 40.0
e 53 136 3.0
e 54 314 20.0
e 54 384 2.0
e 55 237 43.0
e 55 544 28.0
e 56 43 27.0
e 56 308 25.0
e 57 442 1.0
e 57 183 18.0
e 58 338 15.0
e 58 177 6.0
e 58 91 36.0
e 59 13 42.0
e 59 273 3.0
e 60 210 34.0
e 60 483 19.0
e 61 521 1.0
e 61 155 2.0
e 62 351 1.0
e 62 580 1.0
e 63 185 1.0
e 63 559 1.0
e 64 155 1.0
e 64 507 1.0
e 65 292 1.0
e 65 426 2.0
e 66 431 9.0
e 66 384 1.0
e 67 256 1.0
e 67 357 1.0
e 68 177 25.0
e 68 29 3.0
e 69 25 2.0
e 69 562 2.0
e 70 472 2.0
e 70 399 1.0
e 71 22 41.0
e 71 286 41.0
e 72 481 2.0
e 72 556 1.0
e 73 81 21.0
e 73 160 4.0
e 74 35 24.0
e 74 486 1.0
e 75 467 1.0
e 75 288 2.0
e 76 330 41.0
e 76 374 13.0
e 77 326 3.0
e 77 228 2.0
e 78 19 2.0
e 78 210 1.0
e 79 613 1.0
e 79 612 1.0
e 80 56 35.0
e 80 438 40.0
e 80 575 41.0
e 80 517 45.0
e 80 409 35.0
e 81 148 2.0
e 81 320 2.0
e 82 139 1.0
e 82 91 28.0
e 83 618 1.0
e 83 598 22.0
e 84 226 1.0
e 84 122 1.0
e 85 189 49.0
e 85 246 34.0
e 85 88 6.0
e 86 288 1.0
e 86 31 2.0
e 87 118 1.0
e 87 124 2.0
e 88 179 18.0
e 88 612 34.0
e 88 576 2.0
e 88 468 14.0
e 89 178 1.0
e 89 242 1.0
e 90 446 1.0
e 90 127 49.0
e 91 22 41.0
e 91 368 14.0
e 92 559 1.0
e 92 605 1.0
e 93 613 1.0
e 93 277 42.0
e 94 8 38.0
e 94 82 1.0
e 95 476 2.0
e 95 343 42.0
e 96 307 2.0
e 96 52 1.0
e 97 383 1.0
e 97 423 1.0
e 98 120 2.0
e 98 297 1.0
e 99 600 1.0
e 99 361 1.0
e 100 623 1.0
e 100 175 1.0
e 101 471 42.0
e 101 146 14.0
e 101 106 10.0
e 102 354 20.0
e 102 347 2.0
e 103 29 1.0
e 103 594 1.0
e 104 469 2.0
e 104 306 27.0
e 105 546 1.0
e 105 155 1.0
e 106 191 41.0
e 106 323 46.0
e 106 558 22.0
e 107 394 2.0
e 107 515 2.0
e 108 538 24.0
e 108 39 1.0
e 109 492 2.0
e 109 244 24.0
e 110 493 1.0
e 110 178 1.0
e 111 347 7.0
e 111 536 15.0
e 111 328 27.0
e 112 508 1.0
e 112 224 21.0
e 113 318 1.0
e 113 616 1.0
e 114 149 2.0
e 114 461 1.0
e 115 571 1.0
e 115 81 1.0
e 116 289 1.0
e 116 62 1.0
e 117 201 43.0
e 117 504 45.0
e 117 583 32.0
e 117 131 13.0
e 118 389 1.0
e 118 411 31.0
e 119 539 3.0
e 119 299 33.0
e 120 232 1.0
e 120 464 1.0
e 121 148 1.0
e 121 84 1.0
e 122 394 1.0
e 122 563 1.0
e 123 170 1.0
e 123 10 2.0
e 124 272 1.0
e 124 4 2.0
e 125 390 1.0
e 125 276 3.0
e 126 251 1.0
e 126 107 1.0
e 127 84 36.0
e 127 6 34.0
e 128 630 8.0
e 128 511 26.0
e 129 106 11.0
e 129 527 1.0
e 130 432 1.0
e 130 567 2.0
e 131 446 29.0
e 131 444 23.0
e 132 610 3.0
e 132 309 18.0
e 133 213 14.0
e 133 570 2.0
e 134 256 1.0
e 134 437 41.0
e 135 214 1.0
e 135 483 2.0
e 136 540 1.0
e 136 631 1.0
e 137 360 2.0
e 137 534 1.0
e 138 225 2.0
e 138 507 1.0
e 139 490 1.0
e 139 378 1.0
e 140 85 5.0
e 140 309 17.0
e 141 36 15.0
e 141 261 1.0
e 142 403 1.0
e 142 528 2.0
e 143 232 1.0
e 143 551 3.0
e 144 1 1.0
e 144 560 1.0
e 145 587 1.0
e 145 432 1.0
e 146 317 2.0
e 146 183 36.0
e 147 224 48.0
e 147 59 1.0
e 148 112 1.0
e 148 506 2.0
e 149 207 1.0
e 149 43 1.0
e 150 24 8.0
e 150 594 1.0
e 151 391 1.0
e 151 102 1.0
e 152 245 1.0
e 152 477 1.0
e 153 553 48.0
e 153 465 42.0
e 154 142 2.0
e 154 429 2.0
e 155 296 38.0
e 155 450 1.0
e 156 241 12.0
e 156 626 5.0
e 157 562 1.0
e 157 367 1.0
e 158 269 9.0
e 158 328 13.0
e 159 486 15.0
e 159 52 22.0
e 160 129 35.0
e 160 76 47.0
e 160 555 10.0
e 161 401 1.0
e 161 302 1.0
e 162 565 1.0
e 162 167 1.0
e 163 47 1.0
e 163 187 47.0
e 164 355 1.0
e 164 636 9.0
e 165 557 20.0
e 165 463 1.0
e 166 371 21.0
e 166 601 32.0
e 166 171 29.0
e 166 529 4.0
e 167 575 27.0
e 167 220 1.0
e 168 415 1.0
e 168 43 1.0
e 169 351 1.0
e 169 213 25.0
e 170 17 1.0
e 170 155 1.0
e 171 445 26.0
e 171 14 2.0
e 171 173 12.0
e 172 566 21.0
e 172 301 32.0
e 173 110 19.0
e 173 430 44.0
e 174 602 16.0
e 174 377 1.0
e 175 514 1.0
e 175 60 7.0
e 176 347 3.0
e 176 527 1.0
e 177 172 39.0
e 177 456 44.0
e 178 400 1.0
e 178 136 2.0
e 179 201 34.0
e 179 489 39.0
e 179 241 46.0
e 179 180 6.0
e 180 334 35.0
e 180 268 25.0
e 180 187 21.0
e 180 458 14.0
e 181 582 2.0
e 181 237 1.0
e 182 581 1.0
e 182 194 2.0
e 183 73 41.0
e 183 283 29.0
e 184 190 1.0
e 184 503 1.0
e 185 399 1.0
e 185 377 1.0
e 186 152 1.0
e 186 135 1.0
e 187 574 34.0
e 187 609 25.0
e 188 143 1.0
e 188 365 4.0
e 189 316 12.0
e 189 29 44.0
e 189 222 6.0
e 190 259 1.0
e 190 627 1.0
e 191 1 1.0
e 191 65 1.0
e 192 340 27.0
e 192 490 2.0
e 193 354 37.0
e 193 377 2.0
e 194 201 1.0
e 194 538 21.0
e 195 449 2.0
e 195 165 1.0
e 196 119 1.0
e 196 182 1.0
e 197 246 4.0
e 197 455 2.0
e 198 420 3.0
e 198 84 1.0
e 199 59 1.0
e 199 220 1.0
e 200 107 2.0
e 200 73 45.0
e 201 446 1.0
e 201 206 1.0
e 202 403 1.0
e 202 539 1.0
e 203 501 1.0
e 203 48 1.0
e 204 122 2.0
e 204 623 1.0
e 205 403 2.0
e 205 268 4.0
e 206 73 1.0
e 206 56 19.0
e 207 490 1.0
e 207 342 1.0
e 208 562 42.0
e 208 537 46.0
e 209 537 1.0
e 209 216 3.0
e 210 449 1.0
e 210 547 1.0
e 211 242 1.0
e 211 475 2.0
e 212 627 1.0
e 212 1 2.0
e 213 0 11.0
e 213 523 29.0
e 214 249 1.0
e 214 462 1.0
e 215 216 24.0
e 215 594 1.0
e 216 406 42.0
e 216 211 44.0
e 217 195 2.0
e 217 29 1.0
e 218 528 1.0
e 218 291 1.0
e 219 146 16.0
e 219 504 1.0
e 220 238 1.0
e 220 168 1.0
e 221 342 1.0
e 221 572 1.0
e 222 104 10.0
e 222 325 11.0
e 223 246 2.0
e 223 614 1.0
e 224 102 46.0
e 224 70 28.0
e 225 568 1.0
e 225 166 4.0
e 226 22 1.0
e 226 401 2.0
e 227 523 6.0
e 227 167 26.0
e 228 585 1.0
e 228 628 1.0
e 229 546 1.0
e 229 465 10.0
e 230 481 31.0
e 230 459 26.0
e 230 630 27.0
e 230 409 30.0
e 231 365 43.0
e 231 454 5.0
e 232 504 1.0
e 232 513 1.0
e 233 11 41.0
e 233 541 44.0
e 234 127 7.0
e 234 391 1.0
e 235 43 1.0
e 235 280 1.0
e 236 183 33.0
e 236 154 2.0
e 237 266 5.0
e 237 342 49.0
e 238 545 1.0
e 238 77 1.0
e 239 64 1.0
e 239 520 1.0
e 240 356 1.0
e 240 11 1.0
e 241 261 44.0
e 241 259 36.0
e 242 183 34.0
e 242 364 1.0
e 243 337 1.0
e 243 74 1.0
e 244 620 17.0
e 244 371 10.0
e 244 630 39.0
e 244 392 11.0
e 245 137 1.0
e 245 39 2.0
e 246 42 22.0
e 246 202 5.0
e 247 628 1.0
e 247 194 1.0
e 248 253 43.0
e 248 118 1.0
e 249 140 13.0
e 249 593 12.0
e 250 349 39.0
e 250 19 33.0
e 250 304 36.0
e 250 588 29.0
e 250 269 5.0
e 251 144 1.0
e 251 131 40.0
e 252 258 2.0
e 252 430 2.0
e 253 84 16.0
e 253 53 5.0
e 254 598 12.0
e 254 427 25.0
e 254 636 12.0
e 254 265 12.0
e 254 576 49.0
e 255 465 22.0
e 255 349 1.0
e 256 367 2.0
e 256 494 6.0
e 257 255 2.0
e 257 122 3.0
e 258 591 1.0
e 258 55 9.0
e 259 235 1.0
e 259 525 1.0
e 260 164 1.0
e 260 434 1.0
e 261 456 1.0
e 261 245 1.0
e 262 473 1.0
e 262 365 17.0
e 263 190 1.0
e 263 569 1.0
e 264 263 47.0
e 264 407 36.0
e 265 145 8.0
e 265 158 30.0
e 265 267 27.0
e 266 161 1.0
e 266 228 1.0
e 267 463 38.0
e 267 397 44.0
e 267 336 13.0
e 268 45 22.0
e 268 435 1.0
e 269 544 11.0
e 269 374 33.0
e 269 271 29.0
e 270 548 1.0
e 270 437 30.0
e 271 622 11.0
e 271 300 46.0
e 271 278 28.0
e 271 583 21.0
e 272 71 44.0
e 272 129 2.0
e 273 276 2.0
e 273 618 1.0
e 274 170 3.0
e 274 233 4.0
e 275 408 3.0
e 275 71 47.0
e 276 572 1.0
e 276 173 26.0
e 277 95 29.0
e 277 267 45.0
e 278 170 48.0
e 278 207 38.0
e 278 279 6.0
e 279 438 23.0
e 279 53 12.0
e 279 588 33.0
e 280 459 2.0
e 280 242 1.0
e 281 141 1.0
e 281 142 1.0
e 282 57 1.0
e 282 406 1.0
e 283 213 38.0
e 283 453 36.0
e 283 286 21.0
e 284 551 14.0
e 284 255 1.0
e 285 116 2.0
e 285 367 1.0
e 286 86 34.0
e 286 502 3.0
e 287 181 2.0
e 287 638 1.0
e 288 602 22.0
e 288 590 46.0
e 289 181 1.0
e 289 69 1.0
e 290 401 1.0
e 290 206 1.0
e 291 33 1.0
e 291 359 1.0
e 292 593 49.0
e 292 530 24.0
e 293 266 1.0
e 293 361 1.0
e 294 485 1.0
e 294 498 2.0
e 295 310 1.0
e 295 489 1.0
e 296 525 30.0
e 296 78 5.0
e 297 428 2.0
e 297 75 2.0
e 298 589 38.0
e 298 502 10.0
e 298 314 14.0
e 298 299 42.0
e 299 425 44.0
e 299 565 7.0
e 299 305 46.0
e 300 167 1.0
e 300 13 38.0
e 301 451 22.0
e 301 185 1.0
e 302 543 1.0
e 302 115 1.0
e 303 513 1.0
e 303 104 1.0
e 304 264 15.0
e 304 621 40.0
e 305 52 35.0
e 305 111 28.0
e 305 443 30.0
e 305 306 32.0
e 306 522 38.0
e 306 526 27.0
e 307 388 1.0
e 307 541 2.0
e 308 74 2.0
e 308 515 1.0
e 309 468 47.0
e 309 204 25.0
e 310 408 1.0
e 310 184 1.0
e 311 307 49.0
e 311 592 24.0
e 311 315 19.0
e 312 495 1.0
e 312 75 2.0
e 313 446 1.0
e 313 501 2.0
e 314 586 40.0
e 314 322 46.0
e 315 209 16.0
e 315 29 17.0
e 315 368 27.0
e 316 226 1.0
e 316 512 49.0
e 317 72 1.0
e 317 393 2.0
e 318 557 30.0
e 318 142 12.0
e 319 479 34.0
e 319 72 1.0
e 319 522 34.0
e 320 160 16.0
e 320 122 1.0
e 321 530 33.0
e 321 199 2.0
e 322 351 1.0
e 322 581 1.0
e 323 60 23.0
e 323 18 2.0
e 323 418 33.0
e 324 206 43.0
e 324 233 31.0
e 324 529 48.0
e 325 561 1.0
e 325 513 1.0
e 326 274 1.0
e 326 587 1.0
e 327 273 1.0
e 327 384 1.0
e 328 142 23.0
e 328 419 47.0
e 329 61 24.0
e 329 324 38.0
e 329 533 11.0
e 329 371 41.0
e 330 419 1.0
e 330 559 1.0
e 331 164 23.0
e 331 195 16.0
e 331 336 12.0
e 331 340 13.0
e 331 341 4.0
e 332 77 2.0
e 332 202 1.0
e 333 387 2.0
e 333 474 1.0
e 334 117 41.0
e 334 320 1.0
e 335 567 1.0
e 335 277 42.0
e 336 291 28.0
e 336 408 35.0
e 337 623 1.0
e 337 568 1.0
e 338 219 1.0
e 338 190 1.0
e 339 24 30.0
e 339 592 2.0
e 340 319 8.0
e 340 145 4.0
e 341 98 18.0
e 341 42 35.0
e 342 366 48.0
e 342 607 9.0
e 343 445 28.0
e 343 53 31.0
e 344 50 18.0
e 344 568 49.0
e 344 422 21.0
e 344 443 31.0
e 344 589 5.0
e 345 540 1.0
e 345 588 9.0
e 346 202 3.0
e 346 82 1.0
e 347 155 1.0
e 347 483 1.0
e 348 28 3.0
e 348 610 3.0
e 349 34 3.0
e 349 7 2.0
e 350 140 10.0
e 350 520 1.0
e 351 531 1.0
e 351 575 1.0
e 352 556 2.0
e 352 568 1.0
e 353 516 17.0
e 353 39 12.0
e 353 358 23.0
e 354 577 35.0
e 354 111 49.0
e 355 95 1.0
e 355 51 1.0
e 356 81 1.0
e 356 27 1.0
e 357 581 1.0
e 357 241 15.0
e 358 130 36.0
e 358 9 9.0
e 358 380 32.0
e 358 458 30.0
e 359 293 2.0
e 359 538 49.0
e 360 32 1.0
e 360 352 2.0
e 361 181 1.0
e 361 103 2.0
e 362 581 1.0
e 362 342 2.0
e 363 584 1.0
e 363 92 1.0
e 364 381 1.0
e 364 252 1.0
e 365 449 15.0
e 365 20 35.0
e 366 294 36.0
e 366 157 49.0
e 367 396 42.0
e 367 482 2.0
e 368 445 14.0
e 368 427 43.0
e 369 309 12.0
e 369 192 2.0
e 370 276 1.0
e 370 530 34.0
e 371 597 26.0
e 371 316 44.0
e 372 340 49.0
e 372 282 1.0
e 373 334 1.0
e 373 442 1.0
e 374 318 30.0
e 374 94 48.0
e 375 172 32.0
e 375 622 1.0
e 376 328 43.0
e 376 357 1.0
e 377 140 39.0
e 377 438 1.0
e 378 283 26.0
e 378 369 1.0
e 379 127 46.0
e 379 26 1.0
e 380 202 27.0
e 380 284 2.0
e 381 116 2.0
e 381 532 1.0
e 382 568 1.0
e 382 96 1.0
e 383 609 1.0
e 383 84 1.0
e 384 620 2.0
e 384 136 2.0
e 385 177 9.0
e 385 540 1.0
e 386 635 1.0
e 386 292 1.0
e 387 410 36.0
e 387 0 2.0
e 388 420 1.0
e 388 580 1.0
e 389 508 2.0
e 389 354 37.0
e 390 467 2.0
e 390 323 6.0
e 391 307 1.0
e 391 137 1.0
e 392 596 39.0
e 392 50 21.0
e 392 396 8.0
e 393 341 8.0
e 393 284 1.0
e 394 357 1.0
e 394 542 1.0
e 395 439 1.0
e 395 119 1.0
e 396 405 1.0
e 396 556 25.0
e 396 410 47.0
e 397 332 2.0
e 397 471 2.0
e 398 632 1.0
e 398 322 1.0
e 399 543 1.0
e 399 193 1.0
e 400 353 7.0
e 400 618 1.0
e 401 399 1.0
e 401 620 1.0
e 402 417 1.0
e 402 130 1.0
e 403 437 28.0
e 403 615 2.0
e 404 6 18.0
e 404 301 1.0
e 405 145 2.0
e 405 462 1.0
e 406 468 43.0
e 406 631 1.0
e 407 403 27.0
e 407 320 1.0
e 408 508 1.0
e 408 308 1.0
e 409 198 23.0
e 409 107 22.0
e 410 431 14.0
e 410 233 36.0
e 411 479 11.0
e 411 486 23.0
e 412 274 1.0
e 412 287 2.0
e 413 476 34.0
e 413 74 1.0
e 414 484 38.0
e 414 288 35.0
e 414 422 27.0
e 414 599 10.0
e 414 425 21.0
e 415 530 5.0
e 415 211 1.0
e 416 330 1.0
e 416 470 1.0
e 417 341 36.0
e 417 220 1.0
e 418 525 8.0
e 418 69 40.0
e 419 610 1.0
e 419 201 1.0
e 420 576 14.0
e 420 500 19.0
e 421 6 20.0
e 421 259 2.0
e 422 228 10.0
e 422 325 43.0
e 423 505 1.0
e 423 420 2.0
e 424 46 1.0
e 424 219 1.0
e 425 193 23.0
e 425 364 21.0
e 425 533 37.0
e 426 476 27.0
e 426 470 1.0
e 427 355 1.0
e 427 347 1.0
e 428 208 28.0
e 428 188 2.0
e 429 488 1.0
e 429 89 2.0
e 430 526 2.0
e 430 600 1.0
e 431 326 20.0
e 431 277 33.0
e 432 208 20.0
e 432 281 1.0
e 433 411 11.0
e 433 288 1.0
e 434 53 24.0
e 434 95 2.0
e 435 391 1.0
e 435 43 1.0
e 436 102 1.0
e 436 193 1.0
e 437 555 18.0
e 437 304 2.0
e 438 220 1.0
e 438 395 1.0
e 439 297 2.0
e 439 128 43.0
e 440 225 1.0
e 440 199 2.0
e 441 602 14.0
e 441 509 1.0
e 442 332 1.0
e 442 307 1.0
e 443 264 6.0
e 443 367 7.0
e 444 469 2.0
e 444 621 1.0
e 445 167 1.0
e 445 272 2.0
e 446 454 1.0
e 446 263 2.0
e 447 382 1.0
e 447 381 1.0
e 448 627 33.0
e 448 125 41.0
e 448 458 17.0
e 448 472 31.0
e 448 480 2.0
e 449 226 1.0
e 449 83 4.0
e 450 61 2.0
e 450 479 1.0
e 451 493 30.0
e 451 572 12.0
e 452 544 1.0
e 452 378 1.0
e 453 418 20.0
e 453 206 1.0
e 454 34 1.0
e 454 40 1.0
e 455 204 2.0
e 455 266 1.0
e 456 585 2.0
e 456 296 16.0
e 457 435 2.0
e 457 68 1.0
e 458 182 33.0
e 458 395 2.0
e 459 378 2.0
e 459 89 2.0
e 460 490 1.0
e 460 202 1.0
e 461 104 1.0
e 461 535 35.0
e 462 422 4.0
e 462 274 1.0
e 463 629 18.0
e 463 202 1.0
e 464 531 3.0
e 464 453 1.0
e 465 211 1.0
e 465 115 19.0
e 466 342 1.0
e 466 161 1.0
e 467 606 29.0
e 467 18 37.0
e 468 207 2.0
e 468 451 45.0
e 469 216 39.0
e 469 515 1.0
e 470 558 6.0
e 470 343 5.0
e 471 557 7.0
e 471 172 10.0
e 472 409 26.0
e 472 522 45.0
e 472 590 45.0
e 473 543 1.0
e 473 216 3.0
e 474 245 1.0
e 474 442 1.0
e 475 205 1.0
e 475 511 1.0
e 476 395 11.0
e 476 584 7.0
e 477 352 2.0
e 477 545 1.0
e 478 558 3.0
e 478 504 2.0
e 479 255 1.0
e 479 386 1.0
e 480 302 1.0
e 480 540 45.0
e 480 494 16.0
e 481 236 1.0
e 481 312 1.0
e 482 621 1.0
e 482 629 37.0
e 483 623 1.0
e 483 48 2.0
e 484 628 1.0
e 484 356 2.0
e 485 26 1.0
e 485 173 19.0
e 486 136 1.0
e 486 520 1.0
e 487 564 2.0
e 487 182 2.0
e 488 348 1.0
e 488 20 1.0
e 489 296 24.0
e 489 310 1.0
e 490 417 1.0
e 490 50 1.0
e 491 77 14.0
e 491 229 35.0
e 492 56 6.0
e 492 76 5.0
e 493 457 2.0
e 493 622 2.0
e 494 376 37.0
e 494 366 29.0
e 494 599 26.0
e 495 289 2.0
e 495 625 1.0
e 496 25 2.0
e 496 336 25.0
e 497 29 1.0
e 497 430 1.0
e 498 417 1.0
e 498 194 3.0
e 499 613 2.0
e 499 17 1.0
e 500 419 39.0
e 500 326 12.0
e 501 118 1.0
e 501 629 28.0
e 502 573 1.0
e 502 407 3.0
e 503 171 44.0
e 503 94 1.0
e 504 293 2.0
e 504 176 2.0
e 505 53 43.0
e 505 581 1.0
e 506 128 22.0
e 506 454 1.0
e 507 107 1.0
e 507 537 1.0
e 508 376 1.0
e 508 568 1.0
e 509 593 2.0
e 509 452 1.0
e 510 104 1.0
e 510 165 2.0
e 511 233 36.0
e 511 91 25.0
e 512 465 7.0
e 512 417 35.0
e 513 474 1.0
e 513 66 1.0
e 514 44 1.0
e 514 638 1.0
e 515 112 1.0
e 515 552 40.0
e 516 158 1.0
e 516 71 44.0
e 517 561 7.0
e 517 452 46.0
e 518 265 39.0
e 518 275 1.0
e 519 524 1.0
e 519 310 1.0
e 520 637 1.0
e 520 496 2.0
e 521 327 1.0
e 521 161 2.0
e 522 432 11.0
e 522 554 47.0
e 523 351 1.0
e 523 191 1.0
e 524 190 1.0
e 524 242 1.0
e 525 454 1.0
e 525 264 32.0
e 526 580 1.0
e 526 523 1.0
e 527 230 47.0
e 527 452 1.0
e 528 224 25.0
e 528 16 2.0
e 529 270 28.0
e 529 364 30.0
e 530 227 29.0
e 530 595 1.0
e 531 54 1.0
e 531 146 25.0
e 532 366 5.0
e 532 345 1.0
e 533 559 46.0
e 533 113 29.0
e 534 251 2.0
e 534 536 1.0
e 535 67 3.0
e 535 354 16.0
e 536 273 1.0
e 536 455 1.0
e 537 83 36.0
e 537 490 1.0
e 538 48 30.0
e 538 97 17.0
e 539 570 1.0
e 539 41 2.0
e 540 462 1.0
e 540 334 2.0
e 541 58 9.0
e 541 614 1.0
e 542 632 1.0
e 542 488 1.0
e 543 248 2.0
e 543 72 1.0
e 544 428 2.0
e 544 71 36.0
e 545 311 30.0
e 546 7 1.0
e 546 93 1.0
e 547 208 25.0
e 547 501 1.0
e 548 126 1.0
e 548 297 1.0
e 549 248 1.0
e 549 439 2.0
e 550 131 35.0
e 550 277 13.0
e 551 191 12.0
e 551 60 4.0
e 552 266 15.0
e 552 451 20.0
e 553 467 33.0
e 553 438 9.0
e 554 572 1.0
e 554 540 1.0
e 555 604 47.0
e 555 477 11.0
e 556 186 1.0
e 556 390 1.0
e 557 463 35.0
e 557 443 39.0
e 558 174 10.0
e 558 227 30.0
e 559 511 1.0
e 559 101 29.0
e 560 215 1.0
e 560 77 1.0
e 561 509 1.0
e 561 551 38.0
e 562 36 44.0
e 562 450 1.0
e 563 347 2.0
e 563 194 1.0
e 564 121 2.0
e 564 134 1.0
e 565 428 1.0
e 565 334 1.0
e 566 572 1.0
e 566 462 2.0
e 567 446 1.0
e 567 589 4.0
e 568 552 48.0
e 568 251 1.0
e 569 83 46.0
e 569 242 1.0
e 570 12 1.0
e 570 586 1.0
e 571 155 1.0
e 571 20 2.0
e 572 349 2.0
e 572 119 1.0
e 573 287 1.0
e 573 509 2.0
e 574 232 2.0
e 574 543 10.0
e 575 475 31.0
e 575 114 26.0
e 576 419 39.0
e 576 534 7.0
e 577 620 2.0
e 577 76 8.0
e 578 215 1.0
e 578 144 1.0
e 579 6 11.0
e 579 506 1.0
e 580 612 1.0
e 580 585 1.0
e 581 491 27.0
e 581 144 1.0
e 582 389 1.0
e 582 268 27.0
e 583 147 30.0
e 583 333 17.0
e 584 489 2.0
e 584 141 1.0
e 585 138 2.0
e 585 380 15.0
e 586 239 1.0
e 586 227 28.0
e 587 198 1.0
e 587 256 3.0
e 588 530 41.0
e 588 491 23.0
e 589 537 29.0
e 589 313 43.0
e 590 15 1.0
e 590 215 6.0
e 591 417 1.0
e 591 497 1.0
e 592 302 1.0
e 592 345 1.0
e 593 423 22.0
e 593 314 21.0
e 594 370 1.0
e 594 428 1.0
e 595 512 23.0
e 595 191 1.0
e 596 224 39.0
e 596 199 1.0
e 597 219 1.0
e 597 319 4.0
e 598 480 18.0
e 598 482 1.0
e 599 128 31.0
e 599 268 22.0
e 600 543 1.0
e 600 497 1.0
e 601 446 1.0
e 601 380 26.0
e 602 232 22.0
e 602 47 30.0
e 603 74 1.0
e 603 447 1.0
e 604 101 39.0
e 604 242 33.0
e 604 606 6.0
e 604 607 32.0
e 605 274 1.0
e 605 291 1.0
e 606 353 4.0
e 606 96 17.0
e 606 607 20.0
e 607 157 44.0
e 607 53 15.0
e 608 3 2.0
e 608 144 1.0
e 609 411 10.0
e 609 242 1.0
e 610 6 32.0
e 610 290 1.0
e 611 559 1.0
e 611 201 1.0
e 612 452 1.0
e 612 326 2.0
e 613 143 1.0
e 613 337 1.0
e 614 613 1.0
e 614 227 43.0
e 615 104 1.0
e 615 55 16.0
e 616 531 1.0
e 616 326 1.0
e 617 600 2.0
e 617 504 1.0
e 618 6 30.0
e 618 8 8.0
e 619 368 7.0
e 619 556 2.0
e 620 424 2.0
e 620 234 1.0
e 621 59 1.0
e 621 535 16.0
e 622 343 16.0
e 622 621 1.0
e 623 495 2.0
e 623 503 1.0
e 624 553 22.0
e 624 463 1.0
e 625 85 17.0
e 625 210 1.0
e 626 427 1.0
e 626 565 1.0
e 627 408 1.0
e 627 310 2.0
e 628 375 2.0
e 628 46 1.0
e 629 253 38.0
e 629 95 10.0
e 630 75 26.0
e 630 500 27.0
e 631 222 5.0
e 631 47 1.0
e 632 537 1.0
e 632 504 2.0
e 633 281 1.0
e 633 184 1.0
e 634 246 16.0
e 634 523 1.0
e 635 94 1.0
e 635 438 1.0
e 636 420 1.0
e 636 96 29.0
e 637 146 8.0
e 637 329 47.0
e 638 22 1.0
e 638 626 1.0
e 639 13 4.0
e 639 431 41.0
